VER
4

OBJSENSE
MIN

QCECONES
1 2
2
7 7
1


VAR
30 1
F 30

CON
1285 4
@0:SVECQCE 1226
SVECQE 30
SVECPSD 28
L= 1

OBJACOORD
2
0 1.0
1 1.0

ACOORD
72
0 0 1.0
1 2 1.0
29 3 1.0
36 4 1.0
106 5 1.0
113 6 1.0
120 7 1.0
232 8 1.0
239 9 1.0
246 10 1.0
253 11 1.0
407 12 1.0
414 13 1.0
421 14 1.0
428 15 1.0
435 16 1.0
631 17 1.0
638 18 1.0
645 19 1.0
652 20 1.0
659 21 1.0
666 22 1.0
904 23 1.0
911 24 1.0
918 25 1.0
925 26 1.0
932 27 1.0
939 28 1.0
946 29 1.0
1226 1 1.0
1228 2 1.0
1228 4 1.0
1228 7 1.0
1228 11 1.0
1228 16 1.0
1228 22 1.0
1228 29 1.0
1256 2 1.0
1257 3 1.0
1258 4 1.0
1259 5 1.0
1260 6 1.0
1261 7 1.0
1262 8 1.0
1263 9 1.0
1264 10 1.0
1265 11 1.0
1266 12 1.0
1267 13 1.0
1268 14 1.0
1269 15 1.0
1270 16 1.0
1271 17 1.0
1272 18 1.0
1273 19 1.0
1274 20 1.0
1275 21 1.0
1276 22 1.0
1277 23 1.0
1278 24 1.0
1279 25 1.0
1280 26 1.0
1281 27 1.0
1282 28 1.0
1283 29 1.0
1284 2 1.0
1284 4 1.0
1284 7 1.0
1284 11 1.0
1284 16 1.0
1284 22 1.0
1284 29 1.0

BCOORD
2
1227 -1.0
1284 1.0
